250 150
1 73 5 6 9 17 18 22 24 25 27 28 29 30 34 35 39 45 47 49 67 70 76 78 81 82 85 86 101 108 109 125 127 129 130 132 134 137 142 143 144 145 150 153 154 155 156 160 162 166 180 182 189 193 194 196 201 203 204 205 211 221 223 224 225 226 228 232 238 239 240 244 246 249
2 39 28 39 109 154 156 224 225 228 244
3 49 9 24 25 27 28 30 34 39 45 49 70 76 78 81 85 86 101 108 109 125 127 132 134 137 143 144 150 153 154 156 162 166 180 182 189 194 201 203 204 205 211 221 223 224 225 226 228 232 238 239 244 246 249
4 79 24 27 28 39 109 127 153 154 156 224 225 228 232 244
5 54 6 9 17 18 22 24 25 27 28 29 30 34 35 39 45 47 49 61 67 70 74 76 78 81 82 85 86 101 107 108 109 125 127 129 130 132 134 137 142 143 144 145 150 153 154 155 156 160 162 166 180 182 189 193 194 196 197 201 203 204 205 211 212 220 221 223 224 225 226 228 232 238 239 240 244 246 249
6 57 9 17 18 22 24 25 27 28 29 30 34 35 39 42 45 47 49 53 61 67 70 74 76 78 81 82 85 86 93 95 101 107 108 109 116 125 127 129 130 131 132 134 137 140 142 143 144 145 150 152 153 154 155 156 160 162 166 180 182 186 188 189 193 194 196 197 201 202 203 204 205 211 212 220 221 223 224 225 226 228 232 238 239 240 242 244 246 249
7 98
8 69 9 24 25 27 28 30 39 45 49 70 78 81 85 86 108 109 125 127 132 137 143 144 153 154 156 166 180 182 189 194 201 203 204 205 211 221 223 224 225 226 228 232 238 239 244 246 249
9 67 11 17 18 22 24 25 27 28 29 30 34 35 37 39 42 45 47 49 50 51 53 58 59 61 63 67 70 74 76 78 79 81 82 85 86 90 93 95 101 107 108 109 114 116 117 123 125 127 129 130 131 132 134 137 140 142 143 144 145 150 152 153 154 155 156 159 160 162 166 179 180 182 184 186 188 189 193 194 196 197 198 201 202 203 204 205 208 211 212 213 214 216 219 220 221 223 224 225 226 228 232 236 238 239 240 242 244 245 246 247 248 249 250
10 49
11 38 24 27 28 39 45 78 85 86 108 109 127 143 153 154 156 166 194 201 203 204 205 224 225 226 228 232 244 246 249
12 34
13 96
14 27 154
15 92
16 82 28 39 109 154 156 224 225 228
17 69 18 22 24 25 27 28 29 30 34 35 39 42 45 47 49 53 61 67 70 74 76 78 81 82 85 86 95 101 107 108 109 116 125 127 129 130 131 132 134 137 140 142 143 144 145 150 153 154 155 156 160 162 166 180 182 186 189 193 194 196 197 201 203 204 205 211 212 220 221 223 224 225 226 228 232 238 239 240 242 244 246 249
18 45 22 24 25 27 28 29 30 34 35 39 42 45 47 49 61 67 70 74 76 78 81 82 85 86 101 107 108 109 125 127 129 130 132 134 137 140 142 143 144 145 150 153 154 155 156 160 162 166 180 182 189 193 194 196 197 201 203 204 205 211 212 220 221 223 224 225 226 228 232 238 239 240 244 246 249
19 69
20 20 28 39 109 154 156 224 225 228
21 75
22 97 24 25 27 28 29 30 34 35 39 42 45 47 49 61 67 70 74 76 78 81 82 85 86 101 107 108 109 116 125 127 129 130 131 132 134 137 140 142 143 144 145 150 153 154 155 156 160 162 166 180 182 189 193 194 196 197 201 203 204 205 211 212 220 221 223 224 225 226 228 232 238 239 240 242 244 246 249
23 51
24 70 25 27 28 29 30 34 35 37 39 42 45 47 49 50 51 53 55 57 58 59 61 62 63 67 70 74 76 78 79 81 82 85 86 90 91 93 95 101 103 107 108 109 114 116 117 119 120 123 125 127 129 130 131 132 134 137 139 140 141 142 143 144 145 149 150 152 153 154 155 156 159 160 162 166 179 180 182 184 186 188 189 193 194 196 197 198 201 202 203 204 205 208 211 212 213 214 216 219 220 221 223 224 225 226 228 232 234 236 238 239 240 242 244 245 246 247 248 249 250
25 29 27 28 29 30 34 35 39 42 45 47 49 53 59 61 67 70 74 76 78 81 82 85 86 93 95 101 107 108 109 116 125 127 129 130 131 132 134 137 140 142 143 144 145 150 152 153 154 155 156 159 160 162 166 180 182 186 188 189 193 194 196 197 201 202 203 204 205 211 212 220 221 223 224 225 226 228 232 238 239 240 242 244 246 249
26 91
27 98 28 29 30 34 35 37 39 40 42 43 45 47 49 50 51 53 55 57 58 59 60 61 62 63 67 70 74 75 76 78 79 81 82 85 86 90 91 93 95 101 103 107 108 109 114 116 117 119 120 123 125 127 129 130 131 132 134 136 137 139 140 141 142 143 144 145 149 150 152 153 154 155 156 159 160 162 166 179 180 182 184 186 188 189 193 194 196 197 198 201 202 203 204 205 208 211 212 213 214 216 219 220 221 223 224 225 226 228 232 234 236 238 239 240 242 244 245 246 247 248 249 250
28 77 29 30 34 35 37 39 40 42 43 45 47 49 50 51 53 55 57 58 59 60 61 62 63 65 67 70 74 75 76 78 79 81 82 85 86 90 91 93 95 98 101 103 107 108 109 111 114 116 117 119 120 123 125 127 129 130 131 132 134 136 137 139 140 141 142 143 144 145 149 150 152 153 154 155 156 159 160 162 166 179 180 182 184 186 188 189 193 194 196 197 198 201 202 203 204 205 208 209 211 212 213 214 216 218 219 220 221 223 224 225 226 228 232 234 236 238 239 240 242 244 245 246 247 248 249 250
29 48 30 34 35 39 42 45 47 49 53 61 67 70 74 76 78 81 82 85 86 93 95 101 107 108 109 116 125 127 129 130 131 132 134 137 140 142 143 144 145 150 152 153 154 155 156 160 162 166 180 182 186 188 189 193 194 196 197 201 202 203 204 205 211 212 220 221 223 224 225 226 228 232 238 239 240 242 244 246 249
30 45 34 35 39 42 45 47 49 53 59 61 67 70 74 76 78 81 82 85 86 93 95 101 107 108 109 116 125 127 129 130 131 132 134 137 140 142 143 144 145 150 152 153 154 155 156 159 160 162 166 180 182 186 188 189 193 194 196 197 201 202 203 204 205 211 212 220 221 223 224 225 226 228 232 238 239 240 242 244 246 249
31 43
32 61
33 36
34 82 35 39 42 45 47 49 53 61 67 70 74 76 78 81 82 85 86 93 95 101 107 108 109 116 125 127 129 130 131 132 134 137 140 142 143 144 145 150 152 153 154 155 156 160 162 166 180 182 186 188 189 193 194 196 197 201 202 203 204 205 211 212 220 221 223 224 225 226 228 232 238 239 240 242 244 246 249
35 89 39 42 45 47 49 53 61 67 70 74 76 78 81 82 85 86 93 95 101 107 108 109 116 125 127 129 130 131 132 134 137 140 142 143 144 145 150 152 153 154 155 156 160 162 166 180 182 186 188 189 193 194 196 197 201 202 203 204 205 211 212 220 221 223 224 225 226 228 232 238 239 240 242 244 246 249
36 94
37 26 39 45 70 78 85 86 108 109 127 132 143 153 154 156 166 180 182 189 194 201 203 204 205 221 224 225 226 228 232 238 239 244 246 249
38 35
39 58 40 42 43 45 47 49 50 51 53 55 57 58 59 60 61 62 63 65 67 70 74 75 76 78 79 81 82 85 86 90 91 93 95 98 101 103 107 108 109 111 114 116 117 119 120 123 125 127 129 130 131 132 134 136 137 139 140 141 142 143 144 145 149 150 152 153 154 155 156 159 160 162 166 179 180 182 184 186 188 189 193 194 196 197 198 201 202 203 204 205 208 209 211 212 213 214 216 218 219 220 221 223 224 225 226 228 232 234 236 238 239 240 242 244 245 246 247 248 249 250
40 58 109 127 153 154 156 224 225 228 232 244
41 57
42 46 45 47 49 70 76 78 81 82 85 86 101 108 109 125 127 129 130 132 134 137 142 143 144 145 150 153 154 155 156 160 162 166 180 182 189 193 194 196 201 203 204 205 211 221 223 224 225 226 228 232 238 239 240 244 246 249
43 44 109 127 154 156 224 225 228 232 244
44 91
45 49 47 49 50 51 53 58 59 61 63 67 70 74 76 78 79 81 82 85 86 90 93 95 101 107 108 109 116 117 123 125 127 129 130 131 132 134 137 140 142 143 144 145 150 152 153 154 155 156 159 160 162 166 180 182 186 188 189 193 194 196 197 198 201 202 203 204 205 208 211 212 213 214 216 219 220 221 223 224 225 226 228 232 236 238 239 240 242 244 245 246 247 248 249 250
46 52
47 65 49 61 67 70 74 76 78 81 82 85 86 101 107 108 109 116 125 127 129 130 131 132 134 137 140 142 143 144 145 150 153 154 155 156 160 162 166 180 182 189 193 194 196 197 201 203 204 205 211 212 220 221 223 224 225 226 228 232 238 239 240 242 244 246 249
48 42
49 33 53 59 61 63 67 70 74 76 78 81 82 85 86 93 95 101 107 108 109 116 123 125 127 129 130 131 132 134 137 140 142 143 144 145 150 152 153 154 155 156 159 160 162 166 180 182 186 188 189 193 194 196 197 201 202 203 204 205 211 212 213 220 221 223 224 225 226 228 232 238 239 240 242 244 246 249
50 60 78 85 86 108 109 127 143 153 154 156 166 194 201 203 204 224 225 226 228 232 244 246 249
51 37 70 78 85 86 108 109 127 132 143 153 154 156 166 180 182 189 194 201 203 204 205 221 224 225 226 228 232 239 244 246 249
52 57
53 91 70 76 78 81 82 85 86 101 108 109 125 127 129 132 134 137 143 144 150 153 154 156 160 162 166 180 182 189 193 194 196 201 203 204 205 211 221 223 224 225 226 228 232 238 239 244 246 249
54 52
55 95 78 86 109 127 153 154 156 166 204 224 225 226 228 232 244 246
56 84
57 72 78 85 86 109 127 153 154 156 166 204 224 225 226 228 232 244 246
58 75 78 85 86 108 109 127 143 153 154 156 166 194 201 203 204 205 224 225 226 228 232 239 244 246 249
59 89 70 76 78 81 85 86 101 108 109 125 127 132 137 143 144 153 154 156 162 166 180 182 189 194 201 203 204 205 211 221 223 224 225 226 228 232 238 239 244 246 249
60 81 109 127 154 156 224 225 228 232 244
61 67 67 70 74 76 78 81 82 85 86 101 107 108 109 125 127 129 130 132 134 137 142 143 144 145 150 153 154 155 156 160 162 166 180 182 189 193 194 196 201 203 204 205 211 212 221 223 224 225 226 228 232 238 239 240 244 246 249
62 74 109 127 153 154 156 224 225 228 232 244 246
63 87 70 78 81 85 86 108 109 127 132 137 143 144 153 154 156 166 180 182 189 194 201 203 204 205 221 223 224 225 226 228 232 238 239 244 246 249
64 60
65 32 109 154 156 224 225 228 244
66 76
67 85 70 74 76 78 81 82 85 86 101 107 108 109 125 127 129 130 132 134 137 142 143 144 145 150 153 154 155 156 160 162 166 180 182 189 193 194 196 201 203 204 205 211 212 221 223 224 225 226 228 232 238 239 240 244 246 249
68 59
69 62
70 39 74 76 78 81 82 85 86 90 93 95 101 107 108 109 116 123 125 127 129 130 131 132 134 137 140 142 143 144 145 150 152 153 154 155 156 159 160 162 166 180 182 186 188 189 193 194 196 197 201 202 203 204 205 211 212 213 219 220 221 223 224 225 226 228 232 238 239 240 242 244 246 249
71 64
72 52
73 88
74 45 76 78 81 82 85 86 101 107 108 109 125 127 129 130 132 134 137 142 143 144 145 150 153 154 155 156 160 162 166 180 182 189 193 194 196 201 203 204 205 211 212 221 223 224 225 226 228 232 238 239 240 244 246 249
75 29 109 127 153 154 156 224 225 228 232 244
76 88 78 81 82 85 86 93 95 101 107 108 109 116 125 127 129 130 131 132 134 137 140 142 143 144 145 150 152 153 154 155 156 159 160 162 166 180 182 186 188 189 193 194 196 197 201 202 203 204 205 211 212 220 221 223 224 225 226 228 232 238 239 240 242 244 246 249
77 85
78 54 79 81 82 85 86 90 91 93 95 101 103 107 108 109 114 116 117 119 120 123 125 127 129 130 131 132 134 137 139 140 141 142 143 144 145 149 150 152 153 154 155 156 159 160 162 166 179 180 182 184 186 188 189 193 194 196 197 198 201 202 203 204 205 208 211 212 213 214 216 219 220 221 223 224 225 226 228 232 234 236 238 239 240 242 244 245 246 247 248 249 250
79 40 85 86 108 109 127 143 153 154 156 166 194 201 203 204 205 224 225 226 228 232 239 244 246 249
80 57
81 91 82 85 86 93 95 101 107 108 109 116 123 125 127 129 130 131 132 134 137 140 142 143 144 145 150 152 153 154 155 156 159 160 162 166 180 182 186 188 189 193 194 196 197 201 202 203 204 205 211 212 213 220 221 223 224 225 226 228 232 238 239 240 242 244 246 249
82 55 85 86 93 95 101 107 108 109 116 125 127 129 130 131 132 134 137 140 142 143 144 145 150 153 154 155 156 160 162 166 180 182 186 188 189 193 194 196 197 201 202 203 204 205 211 212 220 221 223 224 225 226 228 232 238 239 240 242 244 246 249
83 60
84 37
85 86 86 90 93 95 101 107 108 109 114 116 117 123 125 127 129 130 131 132 134 137 140 141 142 143 144 145 150 152 153 154 155 156 159 160 162 166 179 180 182 184 186 188 189 193 194 196 197 198 201 202 203 204 205 208 211 212 213 214 216 219 220 221 223 224 225 226 228 232 236 238 239 240 242 244 245 246 247 248 249 250
86 21 90 91 93 95 101 107 108 109 114 116 117 120 123 125 127 129 130 131 132 134 137 140 141 142 143 144 145 149 150 152 153 154 155 156 159 160 162 166 179 180 182 184 186 188 189 193 194 196 197 198 201 202 203 204 205 208 211 212 213 214 216 219 220 221 223 224 225 226 228 232 236 238 239 240 242 244 245 246 247 248 249 250
87 21
88 43
89 77 154 224
90 75 108 109 127 132 143 153 154 156 166 180 182 189 194 201 203 204 205 221 224 225 226 228 232 239 244 246 249
91 92 109 127 153 154 156 166 204 224 225 226 228 232 244 246
92 33 154
93 59 101 108 109 125 127 129 132 134 137 143 144 150 153 154 156 160 162 166 180 182 189 193 194 196 201 203 204 205 211 221 223 224 225 226 228 232 238 239 244 246 249
94 74
95 40 101 108 109 125 127 129 132 134 137 143 144 145 150 153 154 156 160 162 166 180 182 189 193 194 196 201 203 204 205 211 221 223 224 225 226 228 232 238 239 240 244 246 249
96 36
97 62
98 21 109 154 156 224 228
99 56
100 38
101 22 107 108 109 116 125 127 129 130 131 132 134 137 140 142 143 144 145 150 152 153 154 155 156 159 160 162 166 180 182 186 188 189 193 194 196 197 201 202 203 204 205 211 212 220 221 223 224 225 226 228 232 238 239 240 242 244 246 249
102 45
103 94 109 127 153 154 156 204 224 225 226 228 232 244 246
104 68
105 83
106 86
107 75 108 109 125 127 129 130 132 134 137 142 143 144 145 150 153 154 155 156 160 162 166 180 182 189 193 194 196 201 203 204 205 211 212 221 223 224 225 226 228 232 238 239 240 244 246 249
108 21 109 116 117 123 125 127 129 130 131 132 134 137 140 142 143 144 145 150 152 153 154 155 156 159 160 162 166 180 182 186 188 189 193 194 196 197 198 201 202 203 204 205 208 211 212 213 214 216 219 220 221 223 224 225 226 228 232 236 238 239 240 242 244 245 246 247 248 249 250
109 40 114 116 117 119 120 123 125 127 129 130 131 132 134 136 137 139 140 141 142 143 144 145 149 150 152 153 154 155 156 159 160 162 166 179 180 182 184 186 188 189 193 194 196 197 198 201 202 203 204 205 208 211 212 213 214 216 219 220 221 223 224 225 226 228 232 234 236 238 239 240 242 244 245 246 247 248 249 250
110 44
111 74 154 224 228
112 52
113 61
114 95 127 143 153 154 156 166 194 201 203 204 224 225 226 228 232 244 246
115 20
116 79 125 127 129 132 134 137 143 144 145 150 153 154 156 160 162 166 180 182 189 193 194 196 201 203 204 205 211 221 223 224 225 226 228 232 238 239 240 244 246 249
117 76 127 143 153 154 156 166 194 201 203 204 205 224 225 226 228 232 239 244 246 249
118 32
119 21 127 153 154 156 204 224 225 226 228 232 244 246
120 91 127 153 154 156 166 204 224 225 226 228 232 244 246
121 83
122 39
123 31 127 132 137 143 144 153 154 156 166 180 182 189 194 201 203 204 205 221 223 224 225 226 228 232 238 239 244 246 249
124 81
125 41 127 129 130 131 132 134 137 140 142 143 144 145 150 152 153 154 155 156 159 160 162 166 180 182 186 188 189 193 194 196 197 201 202 203 204 205 211 212 213 220 221 223 224 225 226 228 232 238 239 240 242 244 246 249
126 90
127 74 129 130 131 132 134 137 139 140 141 142 143 144 145 149 150 152 153 154 155 156 159 160 162 166 179 180 182 184 186 188 189 193 194 196 197 198 201 202 203 204 205 208 211 212 213 214 216 219 220 221 223 224 225 226 228 232 234 236 238 239 240 242 244 245 246 247 248 249 250
128 100
129 38 130 131 132 134 137 140 142 143 144 145 150 153 154 155 156 160 162 166 180 182 186 189 193 194 196 197 201 203 204 205 211 212 220 221 223 224 225 226 228 232 238 239 240 242 244 246 249
130 33 132 134 137 140 142 143 144 145 150 153 154 155 156 160 162 166 180 182 189 193 194 196 197 201 203 204 205 211 212 220 221 223 224 225 226 228 232 238 239 240 242 244 246 249
131 74 132 134 137 143 144 145 150 153 154 156 160 162 166 180 182 189 193 194 196 201 203 204 205 211 221 223 224 225 226 228 232 238 239 240 244 246 249
132 40 134 137 140 142 143 144 145 150 152 153 154 155 156 159 160 162 166 180 182 186 188 189 193 194 196 197 201 202 203 204 205 211 212 213 219 220 221 223 224 225 226 228 232 238 239 240 242 244 245 246 249
133 80
134 39 137 140 142 143 144 145 150 152 153 154 155 156 160 162 166 180 182 186 188 189 193 194 196 197 201 202 203 204 205 211 212 220 221 223 224 225 226 228 232 238 239 240 242 244 246 249
135 22 154
136 46 154 156 224 225 228 232 244
137 58 140 142 143 144 145 150 152 153 154 155 156 159 160 162 166 180 182 186 188 189 193 194 196 197 201 202 203 204 205 211 212 213 220 221 223 224 225 226 228 232 238 239 240 242 244 246 249
138 65
139 67 153 154 156 204 224 225 228 232 244 246
140 37 142 143 144 145 150 153 154 155 156 160 162 166 180 182 189 193 194 196 201 203 204 205 211 221 223 224 225 226 228 232 238 239 240 244 246 249
141 82 153 154 156 166 204 224 225 226 228 232 244 246
142 64 143 144 145 150 153 154 155 156 160 162 166 180 182 189 193 194 196 197 201 203 204 205 211 212 220 221 223 224 225 226 228 232 238 239 240 244 246 249
143 26 144 145 150 152 153 154 155 156 159 160 162 166 179 180 182 184 186 188 189 193 194 196 197 198 201 202 203 204 205 208 211 212 213 214 216 219 220 221 223 224 225 226 228 232 236 238 239 240 242 244 245 246 247 248 249 250
144 80 145 150 152 153 154 155 156 159 160 162 166 180 182 186 188 189 193 194 196 197 201 202 203 204 205 211 212 213 220 221 223 224 225 226 228 232 238 239 240 242 244 246 249
145 74 150 153 154 155 156 160 162 166 180 182 189 193 194 196 197 201 203 204 205 211 212 220 221 223 224 225 226 228 232 238 239 240 242 244 246 249
146 20
147 62
148 82
149 40 153 154 156 166 204 224 225 226 228 232 244 246
150 28 152 153 154 155 156 159 160 162 166 180 182 186 188 189 193 194 196 197 201 202 203 204 205 211 212 220 221 223 224 225 226 228 232 238 239 240 242 244 246 249
151 72
152 45 153 154 156 162 166 180 182 189 193 194 201 203 204 205 211 221 223 224 225 226 228 232 238 239 244 246 249
153 62 154 155 156 159 160 162 166 179 180 182 184 186 188 189 193 194 196 197 198 201 202 203 204 205 208 211 212 213 214 216 219 220 221 223 224 225 226 228 232 234 236 238 239 240 242 244 245 246 247 248 249 250
154 72 155 156 157 159 160 162 166 179 180 182 184 186 188 189 193 194 196 197 198 201 202 203 204 205 208 209 211 212 213 214 216 218 219 220 221 223 224 225 226 228 232 233 234 236 238 239 240 242 244 245 246 247 248 249 250
155 89 156 160 162 166 180 182 189 193 194 196 197 201 203 204 205 211 212 220 221 223 224 225 226 228 232 238 239 240 244 246 249
156 31 159 160 162 166 179 180 182 184 186 188 189 193 194 196 197 198 201 202 203 204 205 208 211 212 213 214 216 219 220 221 223 224 225 226 228 232 234 236 238 239 240 242 244 245 246 247 248 249 250
157 92 224
158 63
159 89 162 166 180 182 189 194 201 203 204 205 211 221 223 224 225 226 228 232 238 239 244 246 249
160 33 162 166 180 182 186 188 189 193 194 196 197 201 202 203 204 205 211 212 220 221 223 224 225 226 228 232 238 239 240 242 244 246 249
161 25
162 54 166 180 182 186 188 189 193 194 196 197 201 202 203 204 205 211 212 220 221 223 224 225 226 228 232 238 239 240 242 244 246 249
163 66
164 100
165 20
166 90 179 180 182 184 186 188 189 193 194 196 197 198 201 202 203 204 205 208 211 212 213 214 216 219 220 221 223 224 225 226 228 232 236 238 239 240 242 244 245 246 247 248 249 250
167 87
168 48
169 28
170 46
171 76
172 50
173 66
174 30
175 26
176 23
177 40
178 70
179 57 194 201 203 204 224 225 226 228 232 244 246
180 92 182 186 188 189 193 194 196 197 201 202 203 204 205 211 212 213 219 220 221 223 224 225 226 228 232 238 239 240 242 244 246 249
181 52
182 54 186 188 189 193 194 196 197 201 202 203 204 205 211 212 213 219 220 221 223 224 225 226 228 232 238 239 240 242 244 245 246 249
183 27
184 58 194 201 203 204 224 225 226 228 232 244 246
185 66
186 65 189 193 194 196 201 203 204 205 211 221 223 224 225 226 228 232 238 239 244 246 249
187 93
188 83 189 193 194 196 201 203 204 205 211 221 223 224 225 226 228 232 238 239 244 246 249
189 37 193 194 196 197 201 202 203 204 205 211 212 213 219 220 221 223 224 225 226 228 232 238 239 240 242 244 245 246 248 249
190 62
191 94
192 29
193 66 194 196 197 201 202 203 204 205 211 212 220 221 223 224 225 226 228 232 238 239 240 242 244 246 249
194 98 196 197 198 201 202 203 204 205 208 211 212 213 214 216 219 220 221 223 224 225 226 228 232 236 238 239 240 242 244 245 246 247 248 249 250
195 20
196 66 197 201 202 203 204 205 211 212 220 221 223 224 225 226 228 232 238 239 240 242 244 246 249
197 42 201 203 204 205 211 221 223 224 225 226 228 232 238 239 240 244 246 249
198 52 201 203 204 205 224 225 226 228 232 239 244 246 249
199 90
200 22
201 30 202 203 204 205 208 211 212 213 214 216 219 220 221 223 224 225 226 228 232 236 238 239 240 242 244 245 246 247 248 249 250
202 34 203 204 205 211 221 223 224 225 226 228 232 238 239 244 246 249
203 65 204 205 208 211 212 213 214 216 219 220 221 223 224 225 226 228 232 236 238 239 240 242 244 245 246 247 248 249 250
204 81 205 208 211 212 213 214 216 219 220 221 223 224 225 226 228 232 234 236 238 239 240 242 244 245 246 247 248 249 250
205 90 208 211 212 213 214 219 220 221 223 224 225 226 228 232 236 238 239 240 242 244 245 246 247 248 249 250
206 44
207 88
208 51 224 225 226 228 232 244 246 249
209 97 224 228
210 79
211 58 212 220 221 223 224 225 226 228 232 238 239 240 242 244 246 249
212 46 221 223 224 225 226 228 232 238 239 240 244 246 249
213 65 221 223 224 225 226 228 232 238 239 244 246 249
214 40 224 225 226 228 232 239 244 246 249
215 68
216 64 224 225 226 228 232 244 246 249
217 34
218 59 224 228
219 99 221 224 225 226 228 232 238 239 244 246 249
220 82 221 223 224 225 226 228 232 238 239 240 244 246 249
221 86 223 224 225 226 228 232 236 238 239 240 242 244 245 246 248 249 250
222 88
223 52 224 225 226 228 232 238 239 240 242 244 246 249
224 76 225 226 228 232 233 234 236 238 239 240 242 244 245 246 247 248 249 250
225 76 226 228 232 234 236 238 239 240 242 244 245 246 247 248 249 250
226 50 228 232 234 236 238 239 240 242 244 245 246 247 248 249 250
227 51
228 92 232 234 236 238 239 240 242 244 245 246 247 248 249 250
229 59
230 22
231 60
232 69 234 236 238 239 240 242 244 245 246 247 248 249 250
233 45
234 66 244 246
235 50
236 62 239 244 246 249
237 59
238 90 239 240 242 244 246 249
239 54 240 242 244 245 246 247 248 249 250
240 55 242 244 246 249
241 92
242 23 244 246 249
243 97
244 73 245 246 247 248 249 250
245 39 246 249
246 88 247 248 249 250
247 34 249
248 92 249
249 74 250
250 90
